 100 

  37  34  11   6  37   2  48  10  20   9  10  15   6  36   2  48  32  29  22  11  40   2  33  35  34  27   3  13  38  32  22  19  17  48  47  14  19  32  21  28  40  39   4  37  40  35  28  41  44  25   8  27  50  42  12   5  24  32  31  50   8  25  30  37  48  42  47  12  50  46  19   4   5  18  32  36  20   5   4  25  31   4   7  37  42  11   2   6   1  40   5  26  23   1  33  47   7  23   2  19

 191

  19  24   5   6   1   2  11  22  15  23   4  14  23   8   6   3  10  18  18  22  24  10   9  12  14   4  14  12  14   5  14  16   5   2   2  20   2  24   9   7  21   2  11  21   3  20  22  14   5   2   6  25  24  18  11   2   1  11  18  19  22   3  23   2   2  12  22  20  15   5  24   5  18   6  22  10   2  18  21  18  13   9   3   6  13   4  16  21   4  12  22  16  21  17  20   3   7   3  15   8

